NAME : portcgen-17-4
COMMENT : portcgen N=17, seed=4
TYPE : TSP
DIMENSION : 17
EDGE_WEIGHT_TYPE : EUC_2D
NODE_COORD_SECTION
1 59838 -365671
2 -113752 18718
3 198683 -550715
4 86256 -207457
5 -195436 -120344
6 -124359 -240658
7 6296 31187
8 185338 -236587
9 170041 -309979
10 111295 216086
11 375539 402179
12 6328 16947
13 -368081 -232024
14 -218538 -62088
15 197507 -111248
16 -210066 -138349
17 285259 -134717
